
List of user-set options:

                                    Name   Value                used
                           compl_inf_tol = 1                     yes
                         constr_viol_tol = 1                     yes
                            dual_inf_tol = 1000                  yes
                           linear_solver = ma97                  yes
                              ma86_small = 1e-30                  no
                                  ma86_u = 0.0001                 no
                              ma97_order = best                  yes
                              ma97_small = 1e-30                 yes
                            ma97_switch1 = at_start              yes
                            ma97_switch2 = od_hd_reuse           yes
                                  ma97_u = 1e-06                 yes
                               ma97_umax = 0.5                   yes
                                max_iter = 1000                  yes
                    max_refinement_steps = 20                    yes
                    min_refinement_steps = 5                     yes
                                 mu_init = 1e-06                 yes
           mu_superlinear_decrease_power = 1.25                  yes
                   nlp_scaling_min_value = 1e-08                 yes
                        option_file_name = Preset_Case:_870_NCP.opt  yes
                             output_file = ./tmp/Preset_Case:_870_NCP.output  yes
                      print_user_options = yes                   yes
        required_infeasibility_reduction = 1                      no
                                     tol = 1e-08                 yes
                   warm_start_bound_frac = 1e-20                 yes
                   warm_start_bound_push = 1e-20                 yes
                   warm_start_init_point = yes                   yes
              warm_start_mult_bound_push = 1e-20                 yes
                warm_start_mult_init_max = 1e+40                 yes
             warm_start_slack_bound_frac = 1e-20                 yes
             warm_start_slack_bound_push = 1e-20                 yes

******************************************************************************
This program contains Ipopt, a library for large-scale nonlinear optimization.
 Ipopt is released as open source code under the Eclipse Public License (EPL).
         For more information visit http://projects.coin-or.org/Ipopt
******************************************************************************

This is Ipopt version 3.12.10, running with linear solver ma97.

Number of nonzeros in equality constraint Jacobian...:   117167
Number of nonzeros in inequality constraint Jacobian.:      213
Number of nonzeros in Lagrangian Hessian.............:    47513

Total number of variables............................:    29977
                     variables with only lower bounds:    11312
                variables with lower and upper bounds:    15135
                     variables with only upper bounds:        0
Total number of equality constraints.................:    29864
Total number of inequality constraints...............:       25
        inequality constraints with only lower bounds:        4
   inequality constraints with lower and upper bounds:        0
        inequality constraints with only upper bounds:       21

iter    objective    inf_pr   inf_du lg(mu)  ||d||  lg(rg) alpha_du alpha_pr  ls
   0 -1.7111403e-01 6.31e-02 2.00e+00  -6.0 0.00e+00    -  0.00e+00 0.00e+00   0
In iteration 0, 8 Slacks too small, adjusting variable bounds
   1 -1.7111403e-01 6.31e-02 8.54e+02  -6.0 1.12e+10    -  8.53e-14 9.23e-19h  1
   2 -1.7111336e-01 6.31e-02 8.51e+02  -6.0 3.90e+01    -  1.00e-02 2.21e-05f  1
   3 -1.7111049e-01 6.31e-02 8.46e+02  -6.0 3.21e+01    -  1.91e-02 1.02e-04h  1
   4 -1.7067846e-01 6.22e-02 8.23e+02  -6.0 3.25e+02    -  5.33e-02 1.37e-02h  5
   5r-1.7067846e-01 6.22e-02 9.99e+02  -1.2 0.00e+00    -  0.00e+00 3.97e-07R  2
   6r-1.7063306e-01 6.21e-02 1.00e+03  -1.2 8.09e+03    -  1.42e-05 3.02e-06f  1
   7r-1.7062684e-01 6.07e-02 1.00e+03  -1.2 6.93e+02    -  2.86e-05 4.45e-05f  1
   8r-1.7054096e-01 5.92e-02 1.08e+03  -1.2 4.99e+02    -  1.15e-04 6.43e-05f  1
   9r-1.6850531e-01 5.83e-02 6.44e+03  -1.2 4.68e+02    -  2.29e-04 1.07e-03f  1
iter    objective    inf_pr   inf_du lg(mu)  ||d||  lg(rg) alpha_du alpha_pr  ls
  10 -1.6861326e-01 5.84e-02 1.77e+06  -6.0 1.36e+01    -  6.55e-02 1.84e-02h  1
  11 -1.6861506e-01 5.84e-02 6.37e+05  -6.0 1.39e+01    -  1.84e-02 4.19e-04h  1
  12 -1.6841409e-01 5.80e-02 6.31e+05  -6.0 3.01e+01    -  9.86e-02 8.15e-03h  1
  13 -1.6797827e-01 5.66e-02 6.16e+05  -6.0 6.24e+01    -  3.33e-02 2.36e-02h  4
  14 -1.6753785e-01 5.52e-02 6.01e+05  -6.0 4.72e+01    -  7.09e-04 2.53e-02h  4
  15 -1.6716169e-01 5.37e-02 5.84e+05  -6.0 3.15e+01    -  7.56e-02 2.71e-02h  4
  16 -1.6638711e-01 5.05e-02 5.50e+05  -6.0 3.28e+01    -  3.23e-02 5.86e-02h  3
  17 -1.6566871e-01 4.76e-02 5.18e+05  -6.0 3.24e+01    -  2.25e-01 5.86e-02h  3
  18 -1.6517355e-01 4.56e-02 4.97e+05  -6.0 1.86e+01    -  1.87e-01 4.10e-02h  4
  19 -1.6457458e-01 4.41e-02 4.70e+05  -6.0 1.81e+01    -  4.55e-02 5.43e-02h  4
iter    objective    inf_pr   inf_du lg(mu)  ||d||  lg(rg) alpha_du alpha_pr  ls
  20 -1.6399665e-01 5.34e-02 4.44e+05  -6.0 1.77e+01    -  5.58e-02 5.55e-02h  4
  21 -1.6344058e-01 6.15e-02 4.18e+05  -6.0 1.77e+01    -  3.32e-01 5.72e-02h  4
  22 -1.6268132e-01 7.85e-02 3.84e+05  -6.0 2.20e+01    -  1.54e-01 8.12e-02h  4
  23 -1.5688765e-01 1.29e+00 1.25e+05  -6.0 2.27e+01    -  4.47e-01 6.75e-01w  1
  24 -1.5516300e-01 8.98e-01 8.76e+04  -6.0 2.17e+01    -  3.13e-01 3.00e-01w  1
  25 -1.5331192e-01 5.58e-01 5.45e+04  -6.0 1.77e+01    -  4.72e-01 3.77e-01w  1
  26 -1.5042402e-01 3.02e-02 8.12e+03  -6.0 1.21e+01    -  7.37e-01 9.88e-01h  1
  27 -1.5096196e-01 2.44e-02 4.75e+06  -6.0 7.72e+01    -  6.06e-04 1.09e-01h  2
  28 -1.5296173e-01 2.41e-02 2.03e+06  -6.0 9.28e+00    -  4.27e-02 1.00e+00h  1
  29 -1.5425442e-01 9.97e-03 8.96e+04  -6.0 7.17e+00    -  3.31e-01 1.00e+00h  1
iter    objective    inf_pr   inf_du lg(mu)  ||d||  lg(rg) alpha_du alpha_pr  ls
  30 -1.5525054e-01 1.84e-02 5.75e+02  -6.0 7.96e+00    -  3.04e-01 1.00e+00h  1
  31 -1.5641376e-01 3.44e-02 1.18e+02  -6.0 1.07e+01    -  7.95e-01 1.00e+00h  1
  32 -1.5819162e-01 6.71e-02 2.50e+01  -6.0 4.06e+01    -  7.88e-01 4.39e-01H  1
  33 -1.5902041e-01 7.63e-02 1.09e+01  -6.0 1.56e+02    -  5.74e-01 8.12e-02h  3
  34 -1.5909510e-01 4.74e-02 1.18e+01  -6.0 4.03e-01  -4.0 9.67e-01 3.80e-01h  1
  35 -1.5941609e-01 1.21e-02 8.59e+00  -6.0 1.01e+00  -4.5 1.00e+00 7.67e-01f  1
  36 -1.5971547e-01 1.35e-02 2.75e+01  -6.0 2.42e+00  -5.0 1.29e-03 4.34e-01h  1
  37 -1.6056772e-01 6.65e-02 1.47e+01  -6.0 7.15e+00  -5.4 6.34e-01 4.52e-01f  1
  38 -1.6094884e-01 8.60e-02 1.31e+01  -6.0 2.95e+01  -5.9 3.35e-01 8.39e-02h  1
  39 -1.6122180e-01 1.15e-01 1.28e+01  -6.0 2.42e+02  -6.4 3.51e-01 1.71e-02h  3
iter    objective    inf_pr   inf_du lg(mu)  ||d||  lg(rg) alpha_du alpha_pr  ls
  40 -1.6136286e-01 1.18e-01 1.29e+01  -6.0 3.98e+01  -6.0 8.66e-01 3.40e-02h  4
  41 -1.6150515e-01 1.28e-01 2.20e+01  -6.0 5.17e+02  -6.4 1.69e-01 4.82e-03h  6
  42 -1.6159885e-01 1.29e-01 2.23e+01  -6.0 5.00e+01  -6.0 1.00e+00 1.98e-02h  6
  43 -1.6165604e-01 1.31e-01 3.19e+01  -6.0 3.18e+03  -6.5 2.67e-02 3.45e-04h  7
  44 -1.6503060e-01 5.15e+00 1.43e+01  -6.0 6.24e+01  -6.1 7.35e-01 6.11e-01h  1
  45 -1.6562484e-01 4.38e+00 5.36e+00  -6.0 1.99e+01  -5.6 5.30e-01 2.31e-01h  1
  46 -1.6560701e-01 3.78e+00 4.36e+00  -6.0 1.61e+01  -6.1 1.53e-01 1.36e-01h  1
  47 -1.6665680e-01 2.07e+00 3.11e+00  -6.0 2.29e+01  -5.7 1.00e+00 6.65e-01h  1
  48 -1.6905495e-01 2.24e+00 1.92e+01  -6.0 4.13e+01  -6.2 2.49e-01 8.14e-01h  1
  49 -1.6922825e-01 1.77e+00 1.49e+01  -6.0 3.41e+01  -6.6 1.00e+00 2.25e-01h  1
iter    objective    inf_pr   inf_du lg(mu)  ||d||  lg(rg) alpha_du alpha_pr  ls
  50 -1.7186709e-01 1.98e+00 5.65e+00  -6.0 9.49e+01  -7.1 1.00e+00 5.86e-01h  1
  51 -1.7726764e-01 4.10e+00 6.81e+00  -6.0 3.20e+02  -7.6 1.00e+00 6.02e-01h  1
  52 -1.8175928e-01 5.14e+00 2.99e+01  -6.0 1.09e+03  -8.1 8.36e-01 2.37e-01h  1
  53 -1.8371961e-01 3.84e+00 8.40e+00  -6.0 3.49e+02  -7.6 1.00e+00 2.80e-01h  1
  54 -1.8778273e-01 3.38e+00 2.04e+01  -6.0 9.66e+02  -8.1 6.38e-01 2.41e-01h  1
  55 -1.9144529e-01 2.99e+00 3.22e+01  -6.0 1.87e+03  -8.6 4.70e-01 1.16e-01h  1
  56 -2.0237656e-01 6.58e+00 2.46e+01  -6.0 8.18e+02  -8.2 1.65e-01 7.64e-01h  1
  57 -2.1001890e-01 1.26e+01 1.30e+01  -6.0 1.51e+03  -8.7 4.56e-01 5.08e-01h  1
  58 -2.1373891e-01 1.08e+01 1.13e+03  -6.0 8.85e+03  -9.1 1.88e-01 1.52e-01h  1
  59 -2.1496967e-01 1.03e+01 1.27e+03  -6.0 1.09e+04  -8.7 4.18e-02 4.96e-02h  1
iter    objective    inf_pr   inf_du lg(mu)  ||d||  lg(rg) alpha_du alpha_pr  ls
  60 -2.1931142e-01 8.01e+00 4.46e+02  -6.0 9.52e+02  -8.3 4.89e-01 4.62e-01h  1
  61 -2.2154156e-01 9.06e+00 7.33e+02  -6.0 6.47e+02  -8.8 4.51e-01 2.11e-01h  1
  62 -2.2243211e-01 8.93e+00 7.88e+02  -6.0 1.10e+04  -9.2 1.03e-02 3.07e-02h  1
  63 -2.2454130e-01 1.15e+01 1.40e+03  -6.0 8.61e+02  -8.8 3.38e-01 2.06e-01h  1
  64 -2.2471994e-01 1.08e+01 1.32e+03  -6.0 8.02e+02  -8.4 7.97e-02 5.89e-02h  1
  65 -2.2820472e-01 6.07e+00 7.85e+02  -6.0 9.70e+02  -8.9 9.85e-02 5.37e-01h  1
  66 -2.2906177e-01 3.39e+00 1.53e+03  -6.0 1.72e+02  -7.5 3.55e-01 5.00e-01h  1
  67 -2.2993519e-01 2.33e+00 3.70e+03  -6.0 1.97e+02  -8.0 6.47e-01 3.41e-01h  1
  68 -2.3034592e-01 2.05e+00 1.87e+04  -6.0 2.59e+02  -8.5 9.98e-01 1.22e-01h  1
  69 -2.3099772e-01 1.51e+00 1.42e+04  -6.0 1.28e+02  -8.1 4.64e-01 2.82e-01h  1
iter    objective    inf_pr   inf_du lg(mu)  ||d||  lg(rg) alpha_du alpha_pr  ls
  70 -2.3275935e-01 1.14e+00 1.46e+04  -6.0 3.62e+02  -8.5 1.00e+00 5.57e-01h  1
  71 -2.3566721e-01 4.66e+00 2.20e+04  -6.0 7.92e+02  -9.0 8.25e-01 5.58e-01h  1
  72 -2.3625594e-01 4.02e+00 2.64e+04  -6.0 3.93e+02  -8.6 2.08e-01 1.56e-01h  1
  73 -2.3742090e-01 4.24e+00 1.04e+05  -6.0 1.08e+03  -9.1 4.64e-01 2.01e-01h  1
  74 -2.3827286e-01 4.96e+00 1.80e+05  -6.0 4.25e+03  -9.5 1.95e-01 6.21e-02h  1
  75 -2.3966003e-01 5.06e+00 6.11e+05  -6.0 1.14e+03  -9.1 7.72e-01 1.87e-01h  1
  76r-2.3966003e-01 5.06e+00 1.00e+03   0.6 0.00e+00  -8.7 0.00e+00 2.59e-07R  4
  77r-2.3956439e-01 5.06e+00 1.00e+03   0.6 2.35e+04    -  1.54e-07 7.64e-07f  1
  78 -2.3957123e-01 5.05e+00 7.24e+02  -6.0 1.69e+01    -  3.11e-06 2.25e-03h  1
  79 -2.3961806e-01 4.88e+00 6.98e+02  -6.0 1.78e+01    -  1.30e-02 3.41e-02h  1
iter    objective    inf_pr   inf_du lg(mu)  ||d||  lg(rg) alpha_du alpha_pr  ls
  80 -2.3968196e-01 4.43e+00 6.34e+02  -6.0 1.63e+01    -  3.73e-02 9.26e-02h  1
  81 -2.3982185e-01 3.08e+00 4.42e+02  -6.0 1.36e+01    -  2.03e-01 3.04e-01h  1
  82 -2.3985774e-01 2.22e+00 3.18e+02  -6.0 8.73e+00    -  2.09e-01 2.80e-01h  1
  83 -2.3985838e-01 2.19e+00 3.14e+02  -6.0 6.23e+00    -  6.69e-01 1.21e-02h  1
  84 -2.3979570e-01 9.60e-01 1.38e+02  -6.0 5.95e+00    -  4.10e-01 5.62e-01h  1
  85 -2.3980683e-01 3.39e-04 2.61e+01  -6.0 2.57e+00    -  9.28e-01 1.00e+00h  1
  86 -2.3991814e-01 5.98e-04 2.11e+01  -6.0 3.00e+00    -  8.91e-01 3.82e-01h  1
  87 -2.4062708e-01 2.36e-02 1.72e+01  -6.0 2.46e+01    -  8.53e-01 5.02e-01f  1
  88 -2.4081894e-01 2.31e-02 1.61e+01  -6.0 3.70e+01  -7.4 4.06e-01 1.05e-01h  1
  89 -2.4113737e-01 3.02e-02 1.36e+01  -6.0 2.07e+01  -6.9 9.31e-01 3.28e-01f  1
iter    objective    inf_pr   inf_du lg(mu)  ||d||  lg(rg) alpha_du alpha_pr  ls
  90 -2.4120194e-01 2.62e-02 1.02e+01  -6.0 3.09e+01  -7.4 4.99e-01 1.84e-01h  1
  91 -2.4124095e-01 1.38e-02 5.67e-01  -6.0 1.17e+01  -7.0 9.98e-01 1.00e+00f  1
  92 -2.4124446e-01 1.50e-04 1.94e+01  -6.0 3.23e+01  -7.5 1.84e-01 1.00e+00H  1
  93 -2.4159017e-01 2.45e-01 1.88e+00  -6.0 1.04e+02  -7.9 1.00e+00 1.00e+00h  1
  94 -2.4235287e-01 1.43e+00 1.26e+01  -6.0 3.30e+02  -8.4 8.34e-01 7.37e-01h  1
  95 -2.4362978e-01 5.70e+00 4.32e+02  -6.0 3.61e+03  -8.9 2.11e-01 1.64e-01H  1
  96 -2.4375598e-01 5.59e+00 5.47e+02  -6.0 2.08e+03  -9.4 9.92e-02 1.99e-02h  4
  97 -2.4393379e-01 5.21e+00 9.68e+02  -6.0 8.11e+02  -8.9 3.91e-01 6.79e-02h  2
  98 -2.4499050e-01 4.76e+00 4.52e+02  -6.0 9.45e+02  -8.5 4.43e-01 5.30e-01h  1
  99 -2.4517344e-01 4.51e+00 9.92e+02  -6.0 6.88e+02  -9.0 3.59e-01 5.37e-02h  1
iter    objective    inf_pr   inf_du lg(mu)  ||d||  lg(rg) alpha_du alpha_pr  ls
 100 -2.4570454e-01 5.23e+00 9.99e+02  -6.0 1.27e+04  -9.5 3.42e-02 2.28e-02h  1
 101 -2.4667787e-01 4.93e+00 7.90e+02  -6.0 1.82e+03  -9.9 1.41e-01 1.50e-01h  1
 102 -2.4837192e-01 3.18e+01 5.89e+02  -6.0 5.08e+03 -10.4 5.73e-02 3.09e-01h  1
 103 -2.4893331e-01 2.16e+01 1.52e+03  -6.0 4.13e+02  -9.1 7.44e-01 3.23e-01h  1
 104 -2.5018277e-01 1.19e+01 1.92e+03  -6.0 1.54e+03  -9.6 1.26e-04 4.98e-01h  1
 105 -2.5090696e-01 1.95e+01 2.38e+03  -6.0 3.95e+03  -9.1 1.95e-01 2.38e-01h  1
 106 -2.5118578e-01 1.81e+01 3.59e+03  -6.0 4.16e+02  -7.8 7.63e-05 7.40e-02h  1
 107 -2.5148507e-01 1.61e+01 3.73e+03  -6.0 6.16e+02  -8.3 6.85e-02 1.09e-01f  1
 108 -2.5179808e-01 1.50e+01 3.38e+03  -6.0 6.54e+02  -8.8 8.18e-02 7.49e-02h  1
 109 -2.5246602e-01 1.33e+01 2.10e+03  -6.0 1.00e+03  -9.2 1.78e-01 1.16e-01h  1
iter    objective    inf_pr   inf_du lg(mu)  ||d||  lg(rg) alpha_du alpha_pr  ls
 110 -2.5331409e-01 9.13e+00 1.38e+04  -6.0 8.35e+02  -8.8 1.10e-01 3.31e-01h  1
 111 -2.5399979e-01 6.05e+00 1.15e+04  -6.0 2.98e+02  -8.4 1.70e-01 3.40e-01h  1
 112 -2.5441141e-01 4.99e+00 9.63e+03  -6.0 6.45e+02  -8.9 1.79e-01 1.76e-01h  1
 113 -2.5481641e-01 4.37e+00 3.99e+02  -6.0 7.64e+02  -9.4 2.21e-01 1.26e-01h  1
 114 -2.5535318e-01 3.89e+00 1.54e+03  -6.0 1.61e+03  -9.8 1.76e-01 1.11e-01h  1
 115 -2.5614627e-01 3.37e+00 1.79e+03  -6.0 3.16e+03 -10.3 1.01e-01 1.35e-01h  1
 116 -2.5628901e-01 3.30e+00 1.31e+06  -6.0 8.42e+03  -9.9 6.36e-04 2.09e-02h  1
 117 -2.5661755e-01 3.05e+00 1.21e+06  -6.0 6.89e+03 -10.4 6.11e-02 7.62e-02h  1
Error in an AMPL evaluation. Run with "halt_on_ampl_error yes" to see details.
Warning: Cutting back alpha due to evaluation error
 118 -2.5675165e-01 2.88e+00 1.14e+06  -6.0 2.75e+03  -9.9 5.66e-02 5.81e-02h  2
 119 -2.5680918e-01 2.66e+00 1.06e+06  -6.0 2.65e+02  -8.6 8.28e-02 7.37e-02h  1
iter    objective    inf_pr   inf_du lg(mu)  ||d||  lg(rg) alpha_du alpha_pr  ls
 120 -2.5773492e-01 1.21e+00 6.28e+02  -6.0 5.31e+02  -9.1 1.66e-01 1.00e+00f  1
 121 -2.5776937e-01 1.16e+00 6.01e+02  -6.0 1.12e+03  -9.6 1.61e-01 4.36e-02h  1
 122 -2.5768824e-01 8.95e-01 2.39e+03  -6.0 1.17e+02  -7.3 4.87e-02 2.47e-01h  1
 123 -2.5767655e-01 1.06e-01 7.09e+02  -6.0 3.90e+01  -7.8 1.07e-01 9.26e-01h  1
 124 -2.5769534e-01 9.64e-02 5.85e+02  -6.0 9.87e+01  -8.3 5.96e-01 1.83e-01f  1
 125 -2.5790317e-01 2.28e-01 4.16e+02  -6.0 2.45e+02  -8.8 6.81e-01 3.01e-01h  1
 126 -2.5840862e-01 9.32e-01 2.59e+02  -6.0 6.68e+02  -9.2 5.04e-01 3.91e-01h  1
 127 -2.5860797e-01 8.19e-01 1.24e+02  -6.0 2.83e+03  -9.7 1.07e-01 1.22e-01h  1
 128 -2.5878194e-01 7.22e-01 1.49e+02  -6.0 1.28e+03 -10.2 2.57e-02 1.50e-01h  1
 129 -2.5880080e-01 7.18e-01 8.92e+01  -6.0 5.76e+03 -10.7 4.78e-02 5.14e-03h  1
iter    objective    inf_pr   inf_du lg(mu)  ||d||  lg(rg) alpha_du alpha_pr  ls
 130 -2.5911109e-01 1.77e+00 3.04e+02  -6.0 7.81e+02 -10.2 3.16e-01 4.57e-01f  1
Error in an AMPL evaluation. Run with "halt_on_ampl_error yes" to see details.
Warning: Cutting back alpha due to evaluation error
 131 -2.5914277e-01 1.75e+00 2.99e+02  -6.0 2.09e+03  -9.8 1.49e-02 2.52e-02h  2
 132 -2.5930752e-01 6.19e+01 2.90e+02  -6.0 2.71e+04 -10.3 3.62e-03 7.22e-02h  1
 133 -2.5930973e-01 6.14e+01 1.97e+04  -6.0 2.63e+03  -8.1 1.10e-01 8.55e-03h  1
Error in an AMPL evaluation. Run with "halt_on_ampl_error yes" to see details.
Warning: Cutting back alpha due to evaluation error
 134 -2.5933414e-01 6.08e+01 6.64e+03  -6.0 1.23e+03  -7.6 5.91e-02 9.64e-03h  2
Error in an AMPL evaluation. Run with "halt_on_ampl_error yes" to see details.
Warning: Cutting back alpha due to evaluation error
 135 -2.5933432e-01 6.06e+01 6.53e+03  -6.0 5.85e+03  -8.1 3.90e-03 2.81e-03h  2
Error in an AMPL evaluation. Run with "halt_on_ampl_error yes" to see details.
Warning: Cutting back alpha due to evaluation error
 136 -2.5933007e-01 6.06e+01 6.16e+03  -6.0 2.46e+04  -8.6 8.68e-03 4.86e-04h  3
Error in an AMPL evaluation. Run with "halt_on_ampl_error yes" to see details.
Warning: Cutting back alpha due to evaluation error
 137 -2.5933154e-01 6.05e+01 5.03e+03  -6.0 1.10e+03  -8.2 1.65e-02 8.76e-04h  5
Error in an AMPL evaluation. Run with "halt_on_ampl_error yes" to see details.
Warning: Cutting back alpha due to evaluation error
 138 -2.5933156e-01 6.05e+01 4.31e+03  -6.0 3.09e+03  -8.6 2.15e-02 4.17e-05h 10
Error in an AMPL evaluation. Run with "halt_on_ampl_error yes" to see details.
Warning: Cutting back alpha due to evaluation error
Error in an AMPL evaluation. Run with "halt_on_ampl_error yes" to see details.
Warning: Evaluation error during soft restoration phase step.
Error in an AMPL evaluation. Run with "halt_on_ampl_error yes" to see details.
Warning: Evaluation error during soft restoration phase step.
Error in an AMPL evaluation. Run with "halt_on_ampl_error yes" to see details.
Warning: Evaluation error during soft restoration phase step.
 139r-2.5933156e-01 6.05e+01 1.00e+03   1.5 0.00e+00  -9.1 0.00e+00 3.07e-07R 15
iter    objective    inf_pr   inf_du lg(mu)  ||d||  lg(rg) alpha_du alpha_pr  ls
 140r-2.5934197e-01 6.05e+01 1.00e+03   1.5 1.31e+05    -  2.01e-09 7.44e-08f  1
 141 -2.5934390e-01 6.04e+01 7.83e+02  -6.0 2.49e+01    -  2.85e-06 2.23e-03h  1
 142 -2.5934874e-01 5.90e+01 7.63e+02  -6.0 2.50e+01    -  1.12e-02 2.37e-02h  1
 143 -2.5935059e-01 5.80e+01 7.49e+02  -6.0 2.44e+01    -  2.73e-02 1.70e-02h  1
 144 -2.5934443e-01 4.92e+01 6.35e+02  -6.0 2.39e+01    -  2.81e-02 1.52e-01h  1
 145 -2.5932983e-01 3.90e+01 5.04e+02  -6.0 2.03e+01    -  1.38e-01 2.07e-01h  1
 146 -2.5931383e-01 2.90e+01 3.74e+02  -6.0 1.61e+01    -  2.89e-01 2.57e-01h  1
 147 -2.5928850e-01 1.43e+01 1.85e+02  -6.0 1.20e+01    -  5.81e-01 5.07e-01h  1
 148 -2.5928537e-01 1.18e+01 5.33e+02  -6.0 5.95e+00    -  7.74e-01 1.71e-01h  1
 149 -2.5931853e-01 1.40e-03 6.19e+01  -6.0 5.02e+00    -  1.70e-01 1.00e+00h  1
iter    objective    inf_pr   inf_du lg(mu)  ||d||  lg(rg) alpha_du alpha_pr  ls
 150 -2.5938154e-01 1.20e-04 3.95e+01  -6.0 1.40e+00    -  7.59e-01 1.00e+00h  1
 151 -2.5956858e-01 1.56e-03 1.19e+01  -6.0 5.90e+00    -  5.34e-01 8.28e-01h  1
 152 -2.5943908e-01 8.82e-04 2.33e+00  -6.0 3.27e+00    -  8.62e-01 1.00e+00h  1
 153 -2.5953414e-01 2.52e-04 1.61e+00  -6.0 3.73e+00    -  3.78e-01 1.00e+00h  1
 154 -2.5951772e-01 3.27e-04 5.23e+00  -6.0 9.59e-01    -  6.00e-01 1.00e+00h  1
 155 -2.5946369e-01 6.75e-04 1.21e+01  -6.0 1.89e+00    -  5.22e-01 1.00e+00h  1
 156 -2.5941028e-01 9.69e-04 4.65e+00  -6.0 3.15e+00    -  8.39e-01 1.00e+00h  1
 157 -2.5933903e-01 5.45e-03 5.92e+00  -6.0 1.77e+01    -  6.74e-01 1.00e+00h  1
 158 -2.5929813e-01 9.51e-01 6.13e+00  -6.0 2.33e+02    -  8.16e-01 1.00e+00h  1
 159 -2.5936290e-01 6.01e+00 5.99e+01  -6.0 1.57e+03    -  2.16e-01 5.32e-01H  1
iter    objective    inf_pr   inf_du lg(mu)  ||d||  lg(rg) alpha_du alpha_pr  ls
 160 -2.5945974e-01 2.14e+00 2.36e+01  -6.0 3.22e+02    -  5.55e-03 6.47e-01h  1
 161 -2.5925829e-01 1.99e+00 3.37e+01  -6.0 7.27e+02    -  2.26e-01 5.01e-01h  1
 162 -2.5910507e-01 3.61e-01 4.10e+01  -6.0 3.60e+01  -8.7 1.97e-03 8.19e-01h  1
 163 -2.5912312e-01 9.09e-01 4.47e+01  -6.0 1.81e+04    -  1.78e-02 1.13e-02h  2
 164 -2.5916469e-01 4.41e-03 5.73e+00  -6.0 9.22e+00  -6.5 1.00e+00 1.00e+00h  1
 165 -2.5919505e-01 1.06e-03 9.37e+00  -6.0 3.25e+00  -6.9 1.00e+00 9.41e-01h  1
 166 -2.5919862e-01 3.08e-03 8.13e-03  -6.0 6.96e+00  -7.4 1.00e+00 1.00e+00f  1
 167 -2.5920702e-01 3.66e-03 4.49e-02  -6.0 8.84e+00  -7.9 1.00e+00 1.00e+00f  1
 168 -2.5923256e-01 1.36e-02 2.14e-02  -6.0 2.15e+01  -8.4 1.00e+00 1.00e+00h  1
 169 -2.5926485e-01 2.21e-02 5.81e-02  -6.0 3.41e+01  -8.8 1.00e+00 1.00e+00h  1
iter    objective    inf_pr   inf_du lg(mu)  ||d||  lg(rg) alpha_du alpha_pr  ls
 170 -2.5928934e-01 1.34e-01 3.08e-02  -6.0 6.00e+01  -9.3 1.00e+00 1.00e+00h  1
 171 -2.5930008e-01 5.93e-01 1.21e+00  -6.0 1.78e+02  -9.8 1.00e+00 8.57e-01h  1
 172 -2.5931371e-01 3.35e+00 4.17e-01  -6.0 5.20e+02 -10.3 1.00e+00 9.77e-01h  1
 173 -2.5931552e-01 4.52e-01 2.22e-01  -6.0 1.92e+02  -9.8 1.00e+00 1.00e+00h  1
 174 -2.5931563e-01 5.10e-01 2.11e+01  -6.0 1.08e+03  -9.4 1.00e+00 3.19e-02h  2
 175 -2.5931948e-01 6.75e-01 2.48e-01  -6.0 2.12e+02  -9.9 1.00e+00 1.00e+00h  1
 176 -2.5931995e-01 4.56e-01 4.32e+00  -6.0 3.44e+02  -9.5 1.00e+00 3.42e-01h  2
 177 -2.5931940e-01 1.07e+00 4.52e-01  -6.0 3.14e+02  -9.9 1.00e+00 9.46e-01h  1
 178 -2.5931602e-01 5.58e+00 9.83e+00  -6.0 6.90e+02 -10.4 7.13e-02 3.12e-01H  1
 179 -2.5931899e-01 1.33e+00 2.58e+00  -6.0 1.81e+03 -10.9 1.00e+00 8.84e-01H  1
iter    objective    inf_pr   inf_du lg(mu)  ||d||  lg(rg) alpha_du alpha_pr  ls
 180 -2.5930944e-01 1.12e+00 1.53e+01  -6.0 7.99e+02 -10.5 1.00e+00 3.32e-01h  1
 181 -2.5930483e-01 3.81e+00 4.98e+01  -6.0 3.32e+03    -  9.26e-01 1.60e-01h  1
 182 -2.5927905e-01 3.38e+00 3.15e-01  -6.0 5.36e+02    -  1.00e+00 1.00e+00h  1
 183 -2.5927908e-01 3.23e+00 2.40e+01  -6.0 1.31e+03    -  1.00e+00 8.24e-02h  1
 184 -2.5927771e-01 1.25e-02 2.14e+01  -6.0 2.97e+01    -  5.10e-02 1.00e+00h  1
 185 -2.5927790e-01 4.34e-04 5.70e-05  -6.0 6.12e+00    -  1.00e+00 1.00e+00h  1
 186 -2.5927793e-01 3.96e-04 1.38e-05  -6.0 5.86e+00    -  1.00e+00 1.00e+00h  1
 187 -2.5927793e-01 1.54e-06 7.37e-08  -6.0 3.65e-01    -  1.00e+00 1.00e+00h  1
 188 -2.5986014e-01 2.12e+00 2.61e+01  -7.5 2.78e+03    -  3.63e-01 2.71e-01h  1
 189 -2.6006202e-01 2.44e+00 8.56e+01  -7.5 2.66e+03    -  5.33e-01 1.80e-01h  1
iter    objective    inf_pr   inf_du lg(mu)  ||d||  lg(rg) alpha_du alpha_pr  ls
 190 -2.6006616e-01 2.43e+00 9.70e+01  -7.5 4.36e+02  -9.1 1.43e-01 4.88e-03h  1
 191 -2.6037450e-01 3.87e+00 5.18e+01  -7.5 2.78e+03    -  1.12e-01 3.13e-01h  1
 192 -2.6037508e-01 3.86e+00 1.14e+02  -7.5 3.31e+02  -9.6 3.89e-01 1.21e-03h  1
 193 -2.6061733e-01 4.09e+00 5.23e+01  -7.5 2.40e+03    -  2.77e-01 4.02e-01h  1
 194 -2.6061950e-01 4.05e+00 1.40e+02  -7.5 2.62e+02 -10.1 8.32e-01 8.64e-03h  1
 195 -2.6081098e-01 1.43e+00 3.80e+01  -7.5 5.49e+02 -10.6 1.00e+00 7.56e-01h  1
 196 -2.6085340e-01 2.00e+01 1.60e+01  -7.5 2.24e+03    -  6.26e-02 5.90e-01h  1
 197 -2.6086034e-01 1.45e+01 1.15e+01  -7.5 4.51e+02    -  1.37e-01 2.87e-01h  1
 198 -2.6086189e-01 1.29e+01 1.02e+01  -7.5 3.60e+02    -  7.21e-02 1.10e-01h  1
 199 -2.6086400e-01 9.66e+00 3.96e+00  -7.5 7.35e+02    -  2.10e-02 1.00e+00h  1
iter    objective    inf_pr   inf_du lg(mu)  ||d||  lg(rg) alpha_du alpha_pr  ls
 200 -2.6086844e-01 5.40e+00 9.47e-01  -7.5 5.50e+02    -  9.47e-01 8.41e-01h  1
 201 -2.6086539e-01 2.06e+00 2.96e-01  -7.5 3.42e+02    -  6.42e-01 1.00e+00h  1
 202 -2.6086409e-01 5.51e-01 2.05e-02  -7.5 2.70e+01 -11.1 1.00e+00 7.36e-01h  1
 203 -2.6086404e-01 5.45e-01 1.56e-01  -7.5 1.64e+04    -  3.17e-02 1.11e-02h  5
 204 -2.6086340e-01 8.71e-02 1.21e-04  -7.5 8.41e+01 -11.5 1.00e+00 1.00e+00h  1
 205 -2.6086335e-01 1.14e+00 1.66e-03  -7.5 3.06e+02 -12.0 1.00e+00 1.00e+00h  1
 206 -2.6086335e-01 1.14e+00 9.50e-01  -7.5 3.47e+03 -12.5 5.82e-01 6.37e-03h  8
 207 -2.6086334e-01 2.12e-01 2.33e-03  -7.5 4.29e+02 -12.1 1.00e+00 1.00e+00H  1
 208 -2.6086334e-01 5.83e-01 1.12e+00  -7.5 1.18e+04 -12.5 1.97e-01 1.46e-02h  5
 209 -2.6086344e-01 1.44e+00 1.03e-02  -7.5 7.48e+02 -12.1 1.00e+00 1.00e+00H  1
iter    objective    inf_pr   inf_du lg(mu)  ||d||  lg(rg) alpha_du alpha_pr  ls
 210 -2.6086351e-01 2.81e+00 1.15e+00  -7.5 7.13e+04 -12.6 3.25e-02 4.56e-03h  4
 211 -2.6086436e-01 4.79e+00 7.78e-02  -7.5 1.40e+03 -12.2 1.00e+00 1.00e+00H  1
 212 -2.6086514e-01 2.22e+01 2.03e-01  -7.5 1.08e+04 -12.6 1.19e-01 1.04e-01h  2
 213 -2.6086592e-01 3.27e+01 4.01e-01  -7.5 4.20e+04 -12.2 3.12e-03 2.05e-02h  2
 214 -2.6086733e-01 2.20e+01 1.11e-01  -7.5 1.17e+03 -11.8 9.84e-01 1.00e+00h  1
 215 -2.6086876e-01 2.47e+01 1.15e-01  -7.5 1.22e+03    -  1.00e+00 1.00e+00h  1
 216 -2.6086854e-01 6.51e-01 6.29e-03  -7.5 2.20e+02    -  1.00e+00 1.00e+00h  1
 217 -2.6086853e-01 1.06e-04 1.24e-05  -7.5 3.15e+00    -  1.00e+00 1.00e+00h  1
 218 -2.6086853e-01 1.31e-08 3.55e-10  -7.5 2.78e-02    -  1.00e+00 1.00e+00h  1
 219 -2.6087029e-01 1.86e+00 5.21e+00  -9.0 1.69e+03    -  5.11e-01 1.97e-01h  1
iter    objective    inf_pr   inf_du lg(mu)  ||d||  lg(rg) alpha_du alpha_pr  ls
 220 -2.6087369e-01 5.67e+01 7.82e-01  -9.0 3.11e+03    -  4.14e-01 5.84e-01h  1
 221 -2.6087455e-01 3.85e+01 2.52e+01  -9.0 1.49e+03    -  3.19e-03 6.52e-01h  1
 222 -2.6087533e-01 1.21e+01 4.09e+00  -9.0 7.03e+02    -  1.05e-01 9.26e-01h  1
 223 -2.6087668e-01 4.54e+01 2.42e+00  -9.0 1.49e+03    -  4.28e-01 1.00e+00h  1
 224 -2.6087669e-01 4.54e+01 2.36e+00  -9.0 6.56e+04    -  1.76e-02 2.86e-04h  4
 225 -2.6087678e-01 4.39e+01 1.51e+00  -9.0 3.70e+03    -  3.58e-01 5.41e-02h  1
 226 -2.6087680e-01 4.37e+01 2.09e+00  -9.0 2.14e+04    -  5.80e-02 4.37e-03h  6
 227 -2.6087684e-01 4.24e+01 2.30e+00  -9.0 8.90e+03    -  4.88e-02 2.92e-02h  4
 228 -2.6087685e-01 4.23e+01 2.63e+00  -9.0 3.39e+04    -  2.84e-02 2.72e-03h  6
 229 -2.6087688e-01 4.18e+01 3.97e+00  -9.0 1.08e+04    -  1.57e-01 1.20e-02h  5
iter    objective    inf_pr   inf_du lg(mu)  ||d||  lg(rg) alpha_du alpha_pr  ls
 230 -2.6087690e-01 4.14e+01 3.85e+00  -9.0 9.28e+03    -  3.22e-02 1.11e-02h  5
 231 -2.6087708e-01 3.56e+01 2.86e+00  -9.0 1.43e+03 -12.3 1.87e-01 1.75e-01h  1
 232 -2.6087772e-01 3.45e+01 2.71e+00  -9.0 5.16e+03    -  1.19e-02 3.28e-01h  1
 233 -2.6087814e-01 3.83e+01 5.45e+00  -9.0 6.43e+03    -  6.17e-02 1.24e-01h  1
 234 -2.6087821e-01 3.75e+01 3.16e+01  -9.0 3.59e+03 -12.7 4.45e-03 2.24e-02h  1
 235 -2.6087834e-01 3.92e+01 1.24e+03  -9.0 1.55e+04 -13.2 1.83e-04 2.95e-02h  3
 236 -2.6087945e-01 6.29e+01 5.40e+02  -9.0 3.99e+03 -12.8 5.29e-02 5.64e-01H  1
 237 -2.6088010e-01 6.56e+00 4.87e+00  -9.0 5.08e+02 -12.4 1.41e-04 1.00e+00h  1
 238 -2.6088011e-01 4.34e+00 5.65e-01  -9.0 6.05e+02 -12.8 2.43e-01 1.00e+00h  1
 239 -2.6088016e-01 1.85e-01 4.64e-01  -9.0 8.20e+01 -11.5 1.78e-01 1.00e+00h  1
iter    objective    inf_pr   inf_du lg(mu)  ||d||  lg(rg) alpha_du alpha_pr  ls
 240 -2.6088031e-01 2.33e+00 3.38e-01  -9.0 2.17e+02 -12.0 2.73e-01 1.00e+00h  1
 241 -2.6088140e-01 6.93e+01 2.58e-01  -9.0 6.28e+03 -12.5 2.37e-01 3.44e-01h  1
 242 -2.6088075e-01 6.98e+01 7.35e+00  -9.0 3.51e+03 -12.0 3.98e-02 1.00e+00H  1
 243 -2.6088089e-01 3.37e-01 9.73e-04  -9.0 2.18e+02 -11.6 1.00e+00 1.00e+00h  1
 244 -2.6088133e-01 6.49e+00 2.05e-03  -9.0 6.47e+02 -12.1 1.00e+00 1.00e+00h  1
 245 -2.6088279e-01 6.17e+01 2.15e-02  -9.0 2.08e+03 -12.6 9.02e-01 9.47e-01h  1
 246 -2.6088405e-01 4.15e+01 5.06e+00  -9.0 1.49e+03 -12.1 7.74e-03 1.00e+00h  1
 247 -2.6088519e-01 8.76e+01 1.63e+00  -9.0 3.84e+03 -12.6 6.06e-02 6.73e-01h  1
 248 -2.6088519e-01 8.51e+01 1.58e+00  -9.0 5.28e+03 -13.1 3.62e-02 3.47e-02h  1
 249 -2.6088556e-01 1.29e+01 3.60e-01  -9.0 8.14e+02 -11.8 3.54e-03 1.00e+00h  1
iter    objective    inf_pr   inf_du lg(mu)  ||d||  lg(rg) alpha_du alpha_pr  ls
 250 -2.6088620e-01 6.12e+00 5.82e-03  -9.0 5.44e+02 -12.2 8.85e-01 1.00e+00h  1
 251 -2.6088810e-01 7.55e+01 2.93e-02  -9.0 1.60e+04 -12.7 5.58e-02 1.42e-01h  1
 252 -2.6088954e-01 8.18e+01 5.20e-01  -9.0 1.02e+04 -13.2 3.68e-02 2.40e-01h  1
 253 -2.6088959e-01 8.11e+01 2.51e+00  -9.0 4.91e+03    -  2.41e-01 8.92e-03h  1
 254 -2.6089067e-01 5.38e+01 4.26e+01  -9.0 2.17e+03    -  2.04e-02 3.40e-01h  1
 255 -2.6089068e-01 5.36e+01 4.25e+01  -9.0 1.84e+03    -  3.37e-01 3.60e-03h  1
 256 -2.6089326e-01 5.41e+01 2.17e+00  -9.0 1.84e+03    -  1.00e+00 9.49e-01h  1
 257 -2.6089422e-01 4.01e+01 1.02e+00  -9.0 1.67e+03    -  5.30e-01 5.32e-01h  1
 258 -2.6089549e-01 3.93e+01 5.33e+00  -9.0 1.65e+03    -  2.93e-01 7.45e-01h  1
 259 -2.6089582e-01 3.13e+01 6.04e+02  -9.0 1.48e+03    -  7.61e-03 3.30e-01h  1
iter    objective    inf_pr   inf_du lg(mu)  ||d||  lg(rg) alpha_du alpha_pr  ls
 260 -2.6089596e-01 2.83e+01 5.24e+02  -9.0 1.75e+03    -  5.26e-01 1.33e-01h  1
 261 -2.6089627e-01 2.51e+01 3.95e+02  -9.0 1.70e+03    -  2.29e-04 2.45e-01h  1
 262 -2.6089700e-01 2.89e+01 1.78e+05  -9.0 1.53e+03  -8.3 1.08e-06 6.13e-01h  1
 263 -2.6089771e-01 2.67e+01 1.19e+05  -9.0 1.07e+03  -8.7 5.07e-07 1.00e+00f  1
 264 -2.6089793e-01 2.02e-01 7.66e+00  -9.0 1.19e+02    -  7.27e-01 1.00e+00h  1
 265 -2.6089798e-01 2.01e-01 7.61e+00  -9.0 1.24e+04    -  8.20e-02 6.61e-03h  1
 266 -2.6089806e-01 8.18e-01 1.65e-02  -9.0 2.39e+02    -  7.12e-01 1.00e+00h  1
 267 -2.6089807e-01 4.23e-02 1.81e-06  -9.0 2.62e+01    -  1.00e+00 1.00e+00h  1
 268 -2.6089807e-01 3.32e-05 5.21e-09  -9.0 5.60e-01  -9.2 1.00e+00 1.00e+00h  1
 269 -2.6089807e-01 2.99e-04 4.71e-09  -9.0 1.68e+00  -9.7 1.00e+00 1.00e+00h  1
iter    objective    inf_pr   inf_du lg(mu)  ||d||  lg(rg) alpha_du alpha_pr  ls
 270 -2.6089807e-01 2.97e-03 4.53e-08  -9.0 5.06e+00 -10.2 1.00e+00 1.00e+00h  1
 271 -2.6089808e-01 3.60e-02 4.19e-07  -9.0 1.53e+01 -10.6 1.00e+00 1.00e+00h  1
 272 -2.6089810e-01 3.11e-01 3.98e-06  -9.0 4.71e+01 -11.1 1.00e+00 1.00e+00h  1
 273 -2.6089865e-01 2.98e+01 2.20e-02  -9.0 4.08e+03    -  2.21e-02 3.53e-01h  1
 274 -2.6089840e-01 5.73e+01 4.08e-02  -9.0 2.26e+03    -  1.97e-01 1.00e+00H  1
 275 -2.6089841e-01 1.96e-01 3.93e-04  -9.0 1.72e+02 -11.6 1.00e+00 1.00e+00h  1
 276 -2.6089860e-01 3.07e+00 4.48e-04  -9.0 4.53e+02 -12.1 1.00e+00 1.00e+00h  1
 277 -2.6089923e-01 3.27e+01 5.46e-03  -9.0 1.47e+03 -12.6 1.00e+00 1.00e+00h  1
 278 -2.6089977e-01 5.47e+01 1.44e-02  -9.0 5.70e+05    -  2.77e-03 2.05e-03h  1
 279 -2.6089982e-01 1.85e-01 1.62e-04  -9.0 4.91e+01    -  1.00e+00 1.00e+00h  1
iter    objective    inf_pr   inf_du lg(mu)  ||d||  lg(rg) alpha_du alpha_pr  ls
 280 -2.6090066e-01 5.61e+01 1.41e-01  -9.0 1.12e+04    -  1.52e-01 1.62e-01h  1
 281 -2.6090100e-01 4.09e+01 1.27e+00  -9.0 1.60e+03    -  2.23e-02 5.55e-01h  1
 282 -2.6090145e-01 2.88e+01 6.80e+02  -9.0 1.17e+03    -  6.89e-03 1.00e+00f  1
 283 -2.6090153e-01 2.88e+01 6.58e+02  -9.0 6.57e+03 -13.0 1.86e-01 3.21e-02h  3
 284 -2.6090156e-01 2.88e+01 6.54e+02  -9.0 1.21e+04 -13.5 1.64e-01 7.14e-03h  4
 285 -2.6090172e-01 2.75e+01 4.97e+02  -9.0 2.10e+03    -  9.51e-01 2.40e-01h  2
 286 -2.6090184e-01 2.60e+01 4.07e+02  -9.0 2.17e+03    -  5.68e-01 1.80e-01h  2
 287 -2.6090200e-01 2.57e+01 3.15e+02  -9.0 2.28e+03    -  1.00e+00 2.28e-01H  1
 288 -2.6090208e-01 2.22e+01 2.38e+02  -9.0 1.39e+03    -  1.60e-01 2.42e-01h  1
 289 -2.6090202e-01 1.51e-01 2.22e+02  -9.0 1.01e+02    -  7.84e-03 1.00e+00h  1
iter    objective    inf_pr   inf_du lg(mu)  ||d||  lg(rg) alpha_du alpha_pr  ls
 290 -2.6090202e-01 3.63e-03 4.11e-04  -9.0 1.22e+01    -  1.00e+00 1.00e+00h  1
 291 -2.6090203e-01 3.02e-02 6.10e-02  -9.0 2.66e+02    -  1.00e+00 1.26e-01h  2
 292 -2.6090204e-01 2.09e-02 8.26e-06  -9.0 2.95e+01    -  1.00e+00 1.00e+00h  1
 293 -2.6090204e-01 2.20e-04 2.91e-08  -9.0 3.05e+00    -  1.00e+00 1.00e+00h  1
 294 -2.6090204e-01 2.03e-09 1.04e-13  -9.0 8.96e-03    -  1.00e+00 1.00e+00h  1

Number of Iterations....: 294

                                   (scaled)                 (unscaled)
Objective...............:  -2.6090203866417344e-01   -2.6090203866417344e-01
Dual infeasibility......:   1.0433026936276855e-13    1.0433026936276855e-13
Constraint violation....:   1.0918722243572647e-09    2.0299921743571758e-09
Complementarity.........:   9.0909091362514978e-10    9.0909091362514978e-10
Overall NLP error.......:   1.0918722243572647e-09    2.0299921743571758e-09


Number of objective function evaluations             = 553
Number of objective gradient evaluations             = 291
Number of equality constraint evaluations            = 561
Number of inequality constraint evaluations          = 551
Number of equality constraint Jacobian evaluations   = 297
Number of inequality constraint Jacobian evaluations = 297
Number of Lagrangian Hessian evaluations             = 294
Total CPU secs in IPOPT (w/o function evaluations)   =    656.799
Total CPU secs in NLP function evaluations           =     11.773

EXIT: Optimal Solution Found.
